
  22   10
  10   10   10   10   10   10   10   10   10   10

   0   0   0   0   0   0   0   0   0   0   0   2 2 4 
   9  10  10  10  10  10  10  10  10  10  10   2 7 3 
   4  10  10  10  10  10  10  10  10  10  10   1 5 
   9  10  10  10  10  10  10  10  10  10  10   1 5 
  10  10  10  10  10  10  10  10  10  10  10   2 8 6 
   8  10  10  10  10  10  10  10  10  10  10   4 13 12 11 9 
   7  10  10  10  10  10  10  10  10  10  10   5 14 13 12 11 10 
   5  10  10  10  10  10  10  10  10  10  10   3 14 13 12 
   7  10  10  10  10  10  10  10  10  10  10   2 14 10 
   9  10  10  10  10  10  10  10  10  10  10   3 21 19 15 
   3  10  10  10  10  10  10  10  10  10  10   3 20 19 15 
   9  10  10  10  10  10  10  10  10  10  10   3 21 19 16 
   9  10  10  10  10  10  10  10  10  10  10   2 19 15 
   1  10  10  10  10  10  10  10  10  10  10   3 20 19 18 
   7  10  10  10  10  10  10  10  10  10  10   1 16 
   4  10  10  10  10  10  10  10  10  10  10   1 17 
   3  10  10  10  10  10  10  10  10  10  10   1 18 
   3  10  10  10  10  10  10  10  10  10  10   1 22
   8  10  10  10  10  10  10  10  10  10  10   1 22
   6  10  10  10  10  10  10  10  10  10  10   1 22
   9  10  10  10  10  10  10  10  10  10  10   1 22
   0   0   0   0   0   0   0   0   0   0   0   0 
